solution status: optimal solution found
objective value:                     142063.617819275
d11(0,0)                                            1 	(obj:0)
d11(1,1)                                            1 	(obj:0)
d11(1,2)                                            1 	(obj:0)
d11(3,7)                                            1 	(obj:0)
d11(3,9)                                            1 	(obj:0)
d11(3,11)                                           1 	(obj:0)
d11(3,13)                                           1 	(obj:0)
d11(4,15)                                           1 	(obj:0)
d11(4,17)                                           1 	(obj:0)
d11(4,19)                                           1 	(obj:0)
d11(4,21)                                           1 	(obj:0)
d11(4,23)                                           1 	(obj:0)
d11(4,25)                                           1 	(obj:0)
d11(4,27)                                           1 	(obj:0)
d11(4,29)                                           1 	(obj:0)
d12(2,4)                                            1 	(obj:0)
d12(2,6)                                            1 	(obj:0)
d12(3,8)                                            1 	(obj:0)
d12(3,10)                                           1 	(obj:0)
d12(3,12)                                           1 	(obj:0)
d12(3,14)                                           1 	(obj:0)
d21(2,3)                                            1 	(obj:0)
d21(3,7)                                            1 	(obj:0)
d21(4,15)                                           1 	(obj:0)
d21(4,16)                                           1 	(obj:0)
d21(4,17)                                           1 	(obj:0)
d21(4,19)                                           1 	(obj:0)
d21(4,21)                                           1 	(obj:0)
d21(4,23)                                           1 	(obj:0)
y2(3,12)                             1214.80225549523 	(obj:0)
y2(3,14)                             1214.80225549523 	(obj:0)
STE(1,1)                                       2362.5 	(obj:0)
STE(0,0)                                         4725 	(obj:0)
STE(1,2)                             4020.74989888882 	(obj:0)
STE(2,3)                                       1984.5 	(obj:0)
STE(2,4)                             3300.71408587651 	(obj:0)
STE(2,5)                             3642.74989888882 	(obj:0)
STE(2,6)                             4958.96398476532 	(obj:0)
STE(3,7)                             1424.28591412352 	(obj:0)
STE(3,8)                             2760.56214272047 	(obj:0)
STE(3,9)                             2740.50000000003 	(obj:0)
STE(3,10)                            4076.77622859698 	(obj:0)
STE(3,11)                            3082.53581301234 	(obj:0)
STE(3,12)                            4418.81204160929 	(obj:0)
STE(3,13)                            4398.74989888885 	(obj:0)
STE(3,14)                             5735.0261274858 	(obj:0)
STE(4,15)                           -611.963984765324 	(obj:0)
STE(4,16)                            1046.28591412352 	(obj:0)
STE(4,17)                            724.312243831627 	(obj:0)
STE(4,18)                            2382.56214272047 	(obj:0)
STE(4,19)                            704.250101111182 	(obj:0)
STE(4,20)                            2362.50000000003 	(obj:0)
STE(4,21)                            2040.52632970813 	(obj:0)
STE(4,22)                            3698.77622859698 	(obj:0)
STE(4,23)                            1046.28591412349 	(obj:0)
STE(4,24)                            2704.53581301234 	(obj:0)
STE(4,25)                            2382.56214272044 	(obj:0)
STE(4,26)                            4040.81204160929 	(obj:0)
STE(4,27)                                      2362.5 	(obj:0)
STE(4,28)                            4020.74989888885 	(obj:0)
STE(4,29)                            3698.77622859695 	(obj:0)
STE(4,30)                             5357.0261274858 	(obj:0)
y1(3,11)                              163.99267728883 	(obj:0)
y1(3,13)                              163.99267728883 	(obj:0)
y1(4,15)                             1492.42490899996 	(obj:0)
y1(4,17)                             1492.42490899996 	(obj:0)
y1(4,19)                             1492.42490899996 	(obj:0)
y1(4,21)                             1492.42490899996 	(obj:0)
y1(4,23)                             1492.42490899996 	(obj:0)
y1(4,25)                             1492.42490899996 	(obj:0)
y1(4,27)                             1492.42490899996 	(obj:0)
y1(4,29)                             1492.42490899996 	(obj:0)
AVE(1)                               3265.91696791192 	(obj:0)
WB(2)                                659.331846861799 	(obj:0)
AVE(2)                               3332.74178563731 	(obj:0)
WB(3)                                603.367573924445 	(obj:0)
AVE(3)                               3444.11697932125 	(obj:0)
AVE(4)                               3399.56511093778 	(obj:0)
WG(1)                                3265.91696791192 	(obj:10)
WG(2)                                2673.40993877551 	(obj:10)
WG(3)                                 2840.7494053968 	(obj:10)
WG(4)                                3399.56511093778 	(obj:10)
BG(1)                                1229.99297086363 	(obj:10)
BG(4)                                796.727388041811 	(obj:10)
y1(1,1)                                       1786.05 	(obj:0)
y1(1,2)                              293.625091000064 	(obj:0)
y1(3,7)                               163.99267728883 	(obj:0)
y1(3,9)                               163.99267728883 	(obj:0)
y2(2,4)                              1385.48851144895 	(obj:0)
y2(2,6)                              1385.48851144895 	(obj:0)
y2(3,8)                              1214.80225549523 	(obj:0)
y2(3,10)                             1214.80225549523 	(obj:0)
